NAME: tsp10_6
COMMENT: 10-tsp problem (Padberg/Rinaldi)
TYPE: TSP
DIMENSION: 10
EDGE_WEIGHT_TYPE : EUC_2D
NODE_COORD_SECTION
1 17 13
2 28 16
3 6 34
4 7 25
5 6 33
6 20 15
7 10 19
8 25 38
9 18 12
10 20 33
